50
150
96
96
96
94
94
87
86
84
84
83
82
82
80
77
75
57
57
56
55
54
52
51
48
48
48
46
46
45
42
34
34
34
32
32
30
23
16
16
16
15
15
14
12
10
6
6
3
1
1
1
